homework/2/sat_in/bonus/28.wcnf
p wcnf 8 19 9
1 -1 0
1 -2 0
1 -3 0
1 -4 0
1 -5 0
1 -6 0
1 -7 0
1 -8 0
9 1 3 0
9 1 7 0
9 1 8 0
9 2 8 0
9 3 4 0
9 3 5 0
9 3 6 0
9 4 5 0
9 6 7 0
9 6 8 0
9 7 8 0
